3 3 2
20 0 21 2 60 0 37 1 54 2 49 0 8 2 28 1 68 2 61 1 1 0 37 1 67 0 97 1 62 2 40 0 7 2 25 0 5 1 6 0 56 
20 2 70 1 52 0 43 1 18 2 47 0 52 1 69 2 66 0 11 2 70 1 67 0 41 1 37 2 14 1 55 0 82 2 38 1 64 2 58 0 17 
20 1 42 2 35 1 84 2 72 0 72 2 18 1 24 2 64 0 84 1 24 0 10 2 83 1 75 2 96 0 94 2 23 0 26 2 60 0 31 2 68 

-------------
